NAME : instance_8_800
TYPE : TSP
DIMENSION : 8
EDGE_WEIGHT_TYPE : EUC_2D
LOWER : 0
UPPER : 100
NODE_COORD_SECTION
1 71.8558118213 98.481433955
2 77.6937601855 79.5386575861
3 81.3828232931 54.7714716755
4 67.8088711575 48.9999169251
5 31.2898162752 74.9580770731
6 77.401559148 89.5380588947
7 20.0303312158 21.7887846055
8 66.2544458173 60.1117822109
EOF
